MONDAY
      103 203 303 101 102 104 105 106 107 108
7_9     -   7   -   -   7   -   -   3   -   8
9_11    -   -   -   -   4   3   7   1   1   -
11_13   4   6   -   5   -   5   3   -   -   -
14_16   -   -   -   3   -   -   8   5   -   1
16_18   -   -   5   4   -   6   4   7   1   3
18_20   -   3   6   8   -   -   -   2   -   2

TUESDAY
      103 203 303 101 102 104 105 106 107 108
7_9     -   8   5   -   4   -   8   -   -   5
9_11    -   7   -   -   6   7   -   -   7   -
11_13   1   -   4   8   -   -   -   7   3   4
14_16   3   -   6   1   -   6   6   3   6   -
16_18   -   6   7   -   -   8   7   4   7   5
18_20   8   -   -   2   -   7   -   2   2   2

WEDNESDAY
      103 203 303 101 102 104 105 106 107 108
7_9     -   7   6   -   7   -   4   3   -   8
9_11    -   2   -   5   4   3   7   1   1   -
11_13   4   6   4   5   -   5   3   3   -   8
14_16   -   5   -   3   -   6   8   5   2   1
16_18   -   -   5   4   -   6   4   7   1   3
18_20   6   3   6   8   -   8   -   2   5   2

THURSDAY
      103 203 303 101 102 104 105 106 107 108
7_9     -   8   5   -   4   -   8   -   -   5
9_11    -   7   -   -   6   7   -   -   7   -
11_13   1   -   4   8   -   -   -   7   3   4
14_16   3   -   6   1   -   6   6   3   6   -
16_18   -   6   7   -   -   8   7   4   7   5
18_20   8   -   -   2   -   7   -   2   2   2

FRIDAY
      103 203 303 101 102 104 105 106 107 108
7_9     -   -   6   -   -   -   4   -   -   -
9_11    -   2   -   5   -   -   -   -   -   -
11_13   -   -   4   -   -   -   -   3   -   8
14_16   -   5   -   -   -   6   -   -   2   -
16_18   -   -   -   -   -   -   -   -   -   -
18_20   6   -   -   -   -   8   -   -   5   -

